39 3 66 1 7 
98 95 78 20 58 
36 47 18 35 52 
94 59 23 41 91 17 100 
31 85 99 10 32 82 
63 71 81 4 50 
96 37 34 54 25 26 
33 29 79 75 74 93 
14 44 86 97 60 48 
92 42 15 40 2 24 80 
45 61 5 46 77 12 
28 30 90 70 
27 69 76 53 56 89 
72 21 51 9 68 83 
64 49 13 
62 88 6 
87 57 43 
73 22 55 
11 19 
16 84 
8 
38 
67 
65 

